(set-info :smt-lib-version 2.6)
(set-logic QF_BV)
(set-info :source |ESBMC floating-point test cases contributed by Mikhail Ramalho.|)
(set-info :category "crafted")
(set-info :status unknown)
(declare-fun |c::main::multiply::1::res@1!0&0#1| () (_ SFXP 32 16))
(declare-fun |c::multiply::$tmp::tmp$1@1!0&0#1| () Bool)
(declare-fun |c::main::divide::1::res@1!0&0#1| () (_ SFXP 32 16))
(declare-fun |c::divide::$tmp::tmp$1@1!0&0#1| () Bool)
(declare-fun |c::cast::$tmp::tmp$1@1!0&0#1| () Bool)
(declare-fun |execution_statet::guard_exec@0!0| () Bool)
(assert (= (sfxp.mul Wrapping roundTowardPositive (sfxp #x00008000 16) (sfxp #x00000000 16)) |c::main::multiply::1::res@1!0&0#1|))
(assert (= (= |c::main::multiply::1::res@1!0&0#1| (sfxp #x00000000 16)) |c::multiply::$tmp::tmp$1@1!0&0#1|))
(assert (= (sfxp.div Wrapping roundTowardPositive (sfxp #x00000000 16) (sfxp #x00020000 16)) |c::main::divide::1::res@1!0&0#1|))
(assert (= (= |c::main::divide::1::res@1!0&0#1| (sfxp #x00000000 16)) |c::divide::$tmp::tmp$1@1!0&0#1|))
(assert (= (= (sfxp #x00000000 16) (sfxp #x00000000 16)) |c::cast::$tmp::tmp$1@1!0&0#1|))
(assert (let ((a!1 (=> true (=> |execution_statet::guard_exec@0!0| (=> (not |c::multiply::$tmp::tmp$1@1!0&0#1|) false)))) (a!2 (=> true (=> |execution_statet::guard_exec@0!0| (=> (not |c::divide::$tmp::tmp$1@1!0&0#1|) false)))) (a!3 (=> true (=> |execution_statet::guard_exec@0!0| (=> (not |c::cast::$tmp::tmp$1@1!0&0#1|) false))))) (or (not a!1) (not a!2) (not a!3))))
(check-sat)
(exit)
